98
0 15 25 14 71 65 63 20 11 81 
55 9 47 6 83 48 89 58 78 27 
39 53 40 62 50 66 10 54 67 33 
49 42 32 77 26 34 74 23 90 2 
21 4 79 30 57 24 22 93 94 12 
52 29 87 91 18 86 85 31 96 82 
44 28 45 36 35 70 3 5 56 75 
84 38 95 37 17 51 59 13 1 8 
68 73 60 92 80 16 61 19 72 64 
43 7 46 97 88 41 76 69 
